sat
(
  (define-fun R () String
    "")
  (define-fun I () String
    "b")
  (define-fun S () String
    "baa")
  (define-fun G () String
    "a")
  (define-fun J () String
    "")
  (define-fun F () String
    "")
  (define-fun L () String
    "")
  (define-fun K () String
    "aa")
  (define-fun U () String
    "")
  (define-fun N () String
    "")
)
